
Gurobi 10.0.1 (linux64) logging started Tue Sep 12 17:31:08 2023

Set parameter LogFile to value "./log/chr20a/chr20a.log"
Set parameter TimeLimit to value 180
Gurobi Optimizer version 10.0.1 build v10.0.1rc0 (linux64)

CPU model: 12th Gen Intel(R) Core(TM) i5-12600KF, instruction set [SSE2|AVX|AVX2]
Thread count: 8 physical cores, 16 logical processors, using up to 16 threads

Optimize a model with 40 rows, 400 columns and 800 nonzeros
Model fingerprint: 0xf3253c0d
Model has 7220 quadratic objective terms
Variable types: 0 continuous, 400 integer (400 binary)
Coefficient statistics:
  Matrix range     [1e+00, 1e+00]
  Objective range  [0e+00, 0e+00]
  QObjective range [2e+01, 3e+03]
  Bounds range     [1e+00, 1e+00]
  RHS range        [1e+00, 1e+00]
Found heuristic solution: objective 11566.000000
Presolve time: 0.03s
Presolved: 220 rows, 580 columns, 8380 nonzeros
Variable types: 0 continuous, 580 integer (400 binary)

Root relaxation: objective 0.000000e+00, 115 iterations, 0.00 seconds (0.00 work units)

    Nodes    |    Current Node    |     Objective Bounds      |     Work
 Expl Unexpl |  Obj  Depth IntInf | Incumbent    BestBd   Gap | It/Node Time

     0     0    0.00000    0   31 11566.0000    0.00000   100%     -    0s
H    0     0                    8858.0000000    0.00000   100%     -    0s
H    0     0                    8310.0000000    0.00000   100%     -    0s
     0     0    0.00000    0   48 8310.00000    0.00000   100%     -    0s
H    0     0                    6230.0000000    0.00000   100%     -    0s
H    0     0                    4768.0000000    0.00000   100%     -    0s
     0     0    0.00000    0   47 4768.00000    0.00000   100%     -    0s
     0     0    0.00000    0   26 4768.00000    0.00000   100%     -    0s
     0     0    0.00000    0   27 4768.00000    0.00000   100%     -    0s
     0     0    0.00000    0   42 4768.00000    0.00000   100%     -    0s
H    0     0                    4412.0000000  244.00000  94.5%     -    0s
     0     0  244.00000    0   27 4412.00000  244.00000  94.5%     -    0s
     0     0  251.20000    0   26 4412.00000  251.20000  94.3%     -    0s
     0     0  256.00000    0   30 4412.00000  256.00000  94.2%     -    0s
H    0     0                    4002.0000000  256.00000  93.6%     -    0s
     0     0  256.00000    0   29 4002.00000  256.00000  93.6%     -    0s
     0     0  256.00000    0   28 4002.00000  256.00000  93.6%     -    0s
     0     0  256.00000    0   33 4002.00000  256.00000  93.6%     -    0s
H    0     0                    3900.0000000  256.00000  93.4%     -    0s
     0     0  256.00000    0   33 3900.00000  256.00000  93.4%     -    0s
     0     0  256.00000    0   31 3900.00000  256.00000  93.4%     -    0s
     0     2  256.00000    0   31 3900.00000  256.00000  93.4%     -    0s
H   81    96                    3816.0000000  256.00000  93.3%  26.4    0s
H   83    96                    3678.0000000  256.00000  93.0%  26.0    0s
H   85    96                    3404.0000000  256.00000  92.5%  25.6    0s
H 1082  1001                    3380.0000000  256.00000  92.4%  14.8    0s
H 1086  1001                    3338.0000000  256.00000  92.3%  14.8    0s
H 1095  1001                    3304.0000000  256.00000  92.3%  14.7    0s
H 1100   997                    3102.0000000  256.00000  91.7%  14.7    0s
H 1103   997                    3078.0000000  256.00000  91.7%  14.8    0s
H 1774  1457                    3020.0000000  256.00000  91.5%  16.9    0s
H 1778  1387                    2894.0000000  256.00000  91.2%  16.9    0s
H 1817  1329                    2882.0000000  256.00000  91.1%  16.9    0s
H11046  6240                    2772.0000000  256.00000  90.8%  20.3    1s
H12602  7275                    2672.0000000  256.00000  90.4%  21.1    1s
H14303  8155                    2534.0000000  256.00000  89.9%  21.3    1s
H14304  8143                    2524.0000000  256.00000  89.9%  21.3    1s
H14307  8032                    2434.0000000  256.00000  89.5%  21.3    1s
H29323 14969                    2388.0000000  256.00000  89.3%  23.8    2s
 42434 20528 1496.51574   75   83 2388.00000 1496.51574  37.3%  24.3    5s
H42569 19551                    2382.0000000 1556.66946  34.6%  24.6    5s
H53231 19427                    2364.0000000 2144.00000  9.31%  25.2    6s
*54330 15578              75    2236.0000000 2144.00000  4.11%  25.1    6s
*55359 14133              74    2224.0000000 2144.00000  3.60%  25.0    6s
*56480 12488              71    2192.0000000 2144.00000  2.19%  24.8    6s

Cutting planes:
  Gomory: 77
  Implied bound: 131
  Clique: 2
  MIR: 11
  StrongCG: 1
  Flow cover: 46
  GUB cover: 4
  Inf proof: 1
  Zero half: 5
  RLT: 10
  Relax-and-lift: 2

Explored 64758 nodes (1560067 simplex iterations) in 7.12 seconds (9.42 work units)
Thread count was 16 (of 16 available processors)

Solution count 10: 2192 2224 2236 ... 2672

Optimal solution found (tolerance 1.00e-04)
Best objective 2.192000000000e+03, best bound 2.192000000000e+03, gap 0.0000%
